c description: Subset cardinality formula for fast_gnp_random_graph(6,8,0.8)
c generator: CNFgen (0.9.0)
c copyright: (C) 2012-2020 Massimo Lauria <massimo.lauria@uniroma1.it>
c url: https://massimolauria.net/cnfgen
c
p cnf 40 279
1 2 3 4 0
1 2 3 5 0
1 2 3 6 0
1 2 4 5 0
1 2 4 6 0
1 2 5 6 0
1 3 4 5 0
1 3 4 6 0
1 3 5 6 0
1 4 5 6 0
2 3 4 5 0
2 3 4 6 0
2 3 5 6 0
2 4 5 6 0
3 4 5 6 0
7 8 9 10 11 0
7 8 9 10 12 0
7 8 9 10 13 0
7 8 9 10 14 0
7 8 9 11 12 0
7 8 9 11 13 0
7 8 9 11 14 0
7 8 9 12 13 0
7 8 9 12 14 0
7 8 9 13 14 0
7 8 10 11 12 0
7 8 10 11 13 0
7 8 10 11 14 0
7 8 10 12 13 0
7 8 10 12 14 0
7 8 10 13 14 0
7 8 11 12 13 0
7 8 11 12 14 0
7 8 11 13 14 0
7 8 12 13 14 0
7 9 10 11 12 0
7 9 10 11 13 0
7 9 10 11 14 0
7 9 10 12 13 0
7 9 10 12 14 0
7 9 10 13 14 0
7 9 11 12 13 0
7 9 11 12 14 0
7 9 11 13 14 0
7 9 12 13 14 0
7 10 11 12 13 0
7 10 11 12 14 0
7 10 11 13 14 0
7 10 12 13 14 0
7 11 12 13 14 0
8 9 10 11 12 0
8 9 10 11 13 0
8 9 10 11 14 0
8 9 10 12 13 0
8 9 10 12 14 0
8 9 10 13 14 0
8 9 11 12 13 0
8 9 11 12 14 0
8 9 11 13 14 0
8 9 12 13 14 0
8 10 11 12 13 0
8 10 11 12 14 0
8 10 11 13 14 0
8 10 12 13 14 0
8 11 12 13 14 0
9 10 11 12 13 0
9 10 11 12 14 0
9 10 11 13 14 0
9 10 12 13 14 0
9 11 12 13 14 0
10 11 12 13 14 0
15 16 17 0
15 16 18 0
15 17 18 0
16 17 18 0
19 20 21 22 0
19 20 21 23 0
19 20 21 24 0
19 20 21 25 0
19 20 22 23 0
19 20 22 24 0
19 20 22 25 0
19 20 23 24 0
19 20 23 25 0
19 20 24 25 0
19 21 22 23 0
19 21 22 24 0
19 21 22 25 0
19 21 23 24 0
19 21 23 25 0
19 21 24 25 0
19 22 23 24 0
19 22 23 25 0
19 22 24 25 0
19 23 24 25 0
20 21 22 23 0
20 21 22 24 0
20 21 22 25 0
20 21 23 24 0
20 21 23 25 0
20 21 24 25 0
20 22 23 24 0
20 22 23 25 0
20 22 24 25 0
20 23 24 25 0
21 22 23 24 0
21 22 23 25 0
21 22 24 25 0
21 23 24 25 0
22 23 24 25 0
26 27 28 29 0
26 27 28 30 0
26 27 28 31 0
26 27 28 32 0
26 27 29 30 0
26 27 29 31 0
26 27 29 32 0
26 27 30 31 0
26 27 30 32 0
26 27 31 32 0
26 28 29 30 0
26 28 29 31 0
26 28 29 32 0
26 28 30 31 0
26 28 30 32 0
26 28 31 32 0
26 29 30 31 0
26 29 30 32 0
26 29 31 32 0
26 30 31 32 0
27 28 29 30 0
27 28 29 31 0
27 28 29 32 0
27 28 30 31 0
27 28 30 32 0
27 28 31 32 0
27 29 30 31 0
27 29 30 32 0
27 29 31 32 0
27 30 31 32 0
28 29 30 31 0
28 29 30 32 0
28 29 31 32 0
28 30 31 32 0
29 30 31 32 0
33 34 35 36 37 0
33 34 35 36 38 0
33 34 35 36 39 0
33 34 35 36 40 0
33 34 35 37 38 0
33 34 35 37 39 0
33 34 35 37 40 0
33 34 35 38 39 0
33 34 35 38 40 0
33 34 35 39 40 0
33 34 36 37 38 0
33 34 36 37 39 0
33 34 36 37 40 0
33 34 36 38 39 0
33 34 36 38 40 0
33 34 36 39 40 0
33 34 37 38 39 0
33 34 37 38 40 0
33 34 37 39 40 0
33 34 38 39 40 0
33 35 36 37 38 0
33 35 36 37 39 0
33 35 36 37 40 0
33 35 36 38 39 0
33 35 36 38 40 0
33 35 36 39 40 0
33 35 37 38 39 0
33 35 37 38 40 0
33 35 37 39 40 0
33 35 38 39 40 0
33 36 37 38 39 0
33 36 37 38 40 0
33 36 37 39 40 0
33 36 38 39 40 0
33 37 38 39 40 0
34 35 36 37 38 0
34 35 36 37 39 0
34 35 36 37 40 0
34 35 36 38 39 0
34 35 36 38 40 0
34 35 36 39 40 0
34 35 37 38 39 0
34 35 37 38 40 0
34 35 37 39 40 0
34 35 38 39 40 0
34 36 37 38 39 0
34 36 37 38 40 0
34 36 37 39 40 0
34 36 38 39 40 0
34 37 38 39 40 0
35 36 37 38 39 0
35 36 37 38 40 0
35 36 37 39 40 0
35 36 38 39 40 0
35 37 38 39 40 0
36 37 38 39 40 0
-1 -7 -15 -19 0
-1 -7 -15 -26 0
-1 -7 -15 -33 0
-1 -7 -19 -26 0
-1 -7 -19 -33 0
-1 -7 -26 -33 0
-1 -15 -19 -26 0
-1 -15 -19 -33 0
-1 -15 -26 -33 0
-1 -19 -26 -33 0
-7 -15 -19 -26 0
-7 -15 -19 -33 0
-7 -15 -26 -33 0
-7 -19 -26 -33 0
-15 -19 -26 -33 0
-8 -20 -27 0
-8 -20 -34 0
-8 -27 -34 0
-20 -27 -34 0
-2 -9 -21 0
-2 -9 -28 0
-2 -9 -35 0
-2 -21 -28 0
-2 -21 -35 0
-2 -28 -35 0
-9 -21 -28 0
-9 -21 -35 0
-9 -28 -35 0
-21 -28 -35 0
-3 -10 -29 0
-3 -10 -36 0
-3 -29 -36 0
-10 -29 -36 0
-4 -11 -16 0
-4 -11 -22 0
-4 -11 -37 0
-4 -16 -22 0
-4 -16 -37 0
-4 -22 -37 0
-11 -16 -22 0
-11 -16 -37 0
-11 -22 -37 0
-16 -22 -37 0
-5 -12 -17 -23 0
-5 -12 -17 -30 0
-5 -12 -17 -38 0
-5 -12 -23 -30 0
-5 -12 -23 -38 0
-5 -12 -30 -38 0
-5 -17 -23 -30 0
-5 -17 -23 -38 0
-5 -17 -30 -38 0
-5 -23 -30 -38 0
-12 -17 -23 -30 0
-12 -17 -23 -38 0
-12 -17 -30 -38 0
-12 -23 -30 -38 0
-17 -23 -30 -38 0
-13 -18 -24 0
-13 -18 -31 0
-13 -18 -39 0
-13 -24 -31 0
-13 -24 -39 0
-13 -31 -39 0
-18 -24 -31 0
-18 -24 -39 0
-18 -31 -39 0
-24 -31 -39 0
-6 -14 -25 0
-6 -14 -32 0
-6 -14 -40 0
-6 -25 -32 0
-6 -25 -40 0
-6 -32 -40 0
-14 -25 -32 0
-14 -25 -40 0
-14 -32 -40 0
-25 -32 -40 0